80 8
44 67
19 68
77 16
26 41
48 42
75 38
4 8
82 54
15 67
11 86
81 74
75 55
3 8
30 71
62 7
97 29
99 42
57 63
48 68
93 24
45 72
36 73
60 69
53 58
12 23
31 4
75 44
33 49
40 28
60 12
63 91
78 79
20 42
95 78
92 8
8 74
88 6
33 96
69 50
10 64
82 93
45 19
71 41
75 43
43 24
88 17
23 38
54 83
47 32
86 91
16 53
72 57
70 49
88 80
71 16
1 98
92 17
56 73
67 85
9 43
18 32
55 60
66 9
25 60
97 78
9 69
52 22
58 24
21 21
23 28
78 35
63 55
5 53
22 44
77 55
78 30
78 94
95 36
56 78
36 50
501 609
373 425
491 598
449 519
569 659
547 642
415 488
457 524
